Version identifier: 12.10.0.0 | 2019-11-26 | 843d4de
CPXPARAM_WorkMem                                 16384
CPXPARAM_MIP_Limits_TreeMemory                   24576
Tried aggregator 2 times.
Aggregator did 20 substitutions.
Reduced MIP has 94 rows, 120 columns, and 428 nonzeros.
Reduced MIP has 120 binaries, 0 generals, 0 SOSs, and 0 indicators.
Presolve time = 0,00 sec. (0,40 ticks)
Found incumbent of value 268,000000 after 0,00 sec. (0,69 ticks)
Probing time = 0,00 sec. (0,13 ticks)
Tried aggregator 1 time.
Detecting symmetries...
MIP Presolve eliminated 32 rows and 0 columns.
MIP Presolve added 64 rows and 0 columns.
Reduced MIP has 126 rows, 120 columns, and 460 nonzeros.
Reduced MIP has 120 binaries, 0 generals, 0 SOSs, and 0 indicators.
Presolve time = 0,00 sec. (0,56 ticks)
Probing time = 0,00 sec. (0,12 ticks)
Clique table members: 278.
MIP emphasis: balance optimality and feasibility.
MIP search method: dynamic search.
Parallel mode: deterministic, using up to 16 threads.
Root relaxation solution time = 0,00 sec. (0,41 ticks)

        Nodes                                         Cuts/
   Node  Left     Objective  IInf  Best Integer    Best Bound    ItCnt     Gap

*     0+    0                          268,0000        0,0000           100,00%
*     0+    0                          132,0000        0,0000           100,00%
*     0+    0                          125,0000        0,0000           100,00%
*     0+    0                          121,0000        0,0000           100,00%
      0     0       67,0000    61      121,0000       67,0000       60   44,63%
      0     0       67,0000    61      121,0000      Cuts: 46       83   44,63%
      0     0       67,0000    61      121,0000      Cuts: 75      113   44,63%
      0     0       67,0000    61      121,0000   ZeroHalf: 1      118   44,63%
*     0+    0                          119,0000       67,0000            43,70%
*     0+    0                          118,0000       67,0000            43,22%
      0     2       80,3333    43      118,0000       84,3333      143   28,53%
Elapsed time = 0,05 sec. (14,29 ticks, tree = 0,02 MB, solutions = 6)

Clique cuts applied:  24
Cover cuts applied:  62
Mixed integer rounding cuts applied:  3
Zero-half cuts applied:  8

Root node processing (before b&c):
  Real time             =    0,04 sec. (14,20 ticks)
Parallel b&c, 16 threads:
  Real time             =    0,04 sec. (6,55 ticks)
  Sync time (average)   =    0,04 sec.
  Wait time (average)   =    0,00 sec.
                          ------------
Total (root+branch&cut) =    0,09 sec. (20,75 ticks)
